Pt O Pt
 1.0000000000000000
     5.5437171645025325    0.0000000000000000    0.0000000000000000
     2.7718585822512662    4.8009998958550284    0.0000000000000000
     0.0000000000000000    0.0000000000000000   31.3160652761166638
Pt O Pt
4 3	20
Cartesian
  0.0000000000000000  0.0000000000000000 21.3160652761166638
  2.7718585822512662  0.0000000000000000 21.3160652761166638
  1.3859292911256331  2.4004999479275142 21.3160652761166638
  4.1577878733768996  2.4004999479275142 21.3160652761166638
 -0.0000000000000000  1.6003332986183427 23.3160652761166638
  2.7718585822512662  1.6003332986183427 23.3160652761166638
  1.3859292911256329  4.0008332465458567 23.3160652761166638
  1.3859292911256331  0.8001666493091714 10.0000000000000000
  4.1577878733768996  0.8001666493091714 10.0000000000000000
  2.7718585822512662  3.2006665972366855 10.0000000000000000
  5.5437171645025325  3.2006665972366855 10.0000000000000000
 -0.0000000000000000  1.6003332986183427 12.2632130552233320
  2.7718585822512662  1.6003332986183427 12.2632130552233320
  1.3859292911256329  4.0008332465458567 12.2632130552233320
  4.1577878733768996  4.0008332465458567 12.2632130552233320
  0.0000000000000000  0.0000000000000000 14.5264261104466659
  2.7718585822512662  0.0000000000000000 14.5264261104466659
  1.3859292911256331  2.4004999479275142 14.5264261104466659
  4.1577878733768996  2.4004999479275142 14.5264261104466659
  1.3859292911256331  0.8001666493091714 16.7896391656699997
  4.1577878733768996  0.8001666493091714 16.7896391656699997
  2.7718585822512662  3.2006665972366855 16.7896391656699997
  5.5437171645025325  3.2006665972366855 16.7896391656699997
 -0.0000000000000000  1.6003332986183427 19.0528522208933317
  2.7718585822512662  1.6003332986183427 19.0528522208933317
  1.3859292911256329  4.0008332465458567 19.0528522208933317
  4.1577878733768996  4.0008332465458567 19.0528522208933317



